benchmarks/sign_function/easy.solution
Problem: sign_function
Difficulty: easy
Type: DEBUG SOLUTION (Expected)
Status: VERIFIED
Solution: ifelse(x > 0, 1, ifelse(x = 0, 0, -1))

Verification Result:
    ✓ VERIFIED: All constraints satisfied
Z3 Status: unsat
